%Mem=192GB
%NProcShared=48
%Chk=4VP-2.chk
#n B3LYP/6-311++G(d,p) Opt freq EmpiricalDispersion=GD3BJ IOp(6/33=2)

4VP geo opt

0 1
H           1.03280        -0.09540        -0.88760
C           2.11560        -0.01600        -0.89700
H           2.53550         0.92240        -1.24350
C           2.87280        -1.05220        -0.51400
H           2.38660        -1.97500        -0.20480
C           4.34250        -1.05390        -0.50100
C           5.08490        -0.65280         0.61160
H           4.60890        -0.31120         1.52360
C           6.46820        -0.70790         0.54440
H           7.07970        -0.40040         1.38770
N           7.15240        -1.13890        -0.53510
C           6.41720        -1.53860        -1.59350
H           6.98910        -1.88680        -2.44870
C           5.03110        -1.52130        -1.62170
H           4.50810        -1.85880        -2.51050

--Link1--
%NoSave
%chk=4VP-2.chk
#P B3LYP/6-311++G(d,p) Geom=Allcheck SCF=Tight EmpiricalDispersion=GD3BJ Pop=CHELPG SP IOp(6/33=2)

Calculating ESP
