%Mem=192GB
%NProcShared=48
%Chk=MAA1-DMA1-2.chk
#n B3LYP/6-311++G(d,p) Opt freq EmpiricalDispersion=GD3BJ IOp(6/33=2)

MAA1-DMA1 geo opt

0 1
C          11.06000        12.21800         1.97500
C          12.49600        12.78900         1.92100
C          12.81300        13.90000         1.24100
C          13.58000        12.08800         2.59100
O          14.77600        12.40600         2.61700
O          13.27600        10.98000         3.32000
H          10.56400        12.23000         1.00500
H          10.45900        12.92400         2.54800
H          11.03500        11.19700         2.35700
H          12.02400        14.35300         0.65800
H          13.82000        14.26900         1.11700
H          14.09600        10.64700         3.65100
C          18.41500         9.86400         7.37200
C          17.37500         9.42300         6.36200
C          17.37700         8.24800         5.74800
C          16.27900        10.30000         5.94100
O          15.43500        10.13400         5.11300
O          16.33800        11.54900         6.56900
C          15.49400        12.61800         6.15200
C          14.07300        12.67300         6.87600
N          13.40400        14.01500         6.57700
C          12.84200        14.01900         5.25400
C          12.19100        14.25500         7.43200
H          19.13300         9.06200         7.54600
H          17.92600        10.16600         8.29800
H          19.09500        10.65900         7.06600
H          18.11600         7.48900         5.96100
H          16.55500         8.03100         5.08200
H          15.49900        12.60800         5.06200
H          15.95800        13.55100         6.47000
H          14.36900        12.55000         7.91800
H          13.43600        11.84900         6.55700
H          12.04800        13.27200         5.22900
H          13.53900        13.74100         4.46300
H          12.48800        14.98500         4.89200
H          12.50400        14.41800         8.46300
H          11.45000        13.45500         7.42900
H          11.71000        15.20600         7.20400

--Link1--
%NoSave
%chk=MAA1-DMA1-2.chk
#P B3LYP/6-311++G(d,p) Geom=Allcheck SCF=Tight EmpiricalDispersion=GD3BJ Pop=CHELPG SP IOp(6/33=2)

Calculating ESP

