#n B3LYP/6-31G(d) Opt gfoldprint pop=full

 Title

0 1
C         -1.91002        2.18557       -0.00441
C         -0.97454        3.36910       -0.00963
H         -0.91293        4.23121        0.82204
H         -0.40260        3.90437       -0.83763
H         -2.75232        1.92574        0.82305
H         -2.28144        1.49691       -0.83173
O         -0.41793        1.96788        0.04209
C          0.98884        0.88742        0.09521
O          2.27957       -0.12902        0.14450

