%Mem=512GB
%NProcShared=128
%Chk=MAA1-VI1-1.chk
#n B3LYP/6-311++G(d,p) Opt freq EmpiricalDispersion=GD3BJ IOp(6/33=2)

MAA1-VI1 geo opt

0 1
C          17.54700        12.49500        23.53400
C          18.89300        11.78800        23.29800
C          20.04400        12.53900        23.38200
C          18.90500        10.39900        23.12400
O          18.43700         9.64500        23.96800
O          19.39000         9.82800        21.98000
H          17.06500        12.60900        22.56300
H          17.51100        13.43600        24.08300
H          16.77700        11.96100        24.09000
H          20.07000        13.61600        23.44700
H          20.97300        11.99100        23.31500
H          19.67600        10.40600        21.28900
C          23.14900        15.16200        21.36400
C          23.24200        14.17800        20.42500
N          22.14000        13.42500        20.08800
C          21.03800        13.95300        19.40900
C          20.05000        12.96300        19.49600
N          20.48100        11.88900        20.30100
C          21.71800        12.25700        20.61100
H          24.00700        15.57200        21.87500
H          22.18700        15.56100        21.64800
H          24.28500        13.93100        20.29400
H          20.86600        14.87500        18.87400
H          19.12000        12.95200        18.94800
H          22.25100        11.74000        21.39600

--Link1--
%NoSave
%chk=MAA1-VI1-1.chk
#P B3LYP/6-311++G(d,p) Geom=Allcheck SCF=Tight EmpiricalDispersion=GD3BJ Pop=CHELPG SP IOp(6/33=2)

Calculating ESP
