%Mem=192GB
%NProcShared=48
%Chk=DMAEMA-4.chk
#n B3LYP/6-311++G(d,p) Opt freq EmpiricalDispersion=GD3BJ IOp(6/33=2)

DMAEMA geo opt

0 1
H          -0.43980        -0.29870         2.15230
C          -0.61380         0.27160         1.24410
H          -0.90790         1.30980         1.37060
C          -0.47570        -0.26000         0.01860
C          -0.06740        -1.67850        -0.20020
O          -0.27330        -2.27390        -1.24540
O           0.55910        -2.20540         0.88810
C          -0.11730        -3.35780         1.41760
H           0.13800        -4.23630         0.81380
H           0.22390        -3.50580         2.44740
C          -1.63820        -3.13510         1.39020
H          -1.97660        -3.05820         0.34830
H          -2.10830        -4.04500         1.78840
N          -2.08910        -1.97250         2.18230
C          -3.54210        -1.79450         2.13070
H          -4.07870        -2.68230         2.48320
H          -3.84780        -0.93930         2.74390
H          -3.87960        -1.56100         1.11630
C          -1.66400        -2.11010         3.57800
H          -2.10280        -2.99280         4.05790
H          -0.57340        -2.18200         3.64830
H          -1.95610        -1.22590         4.15680
C          -0.72270         0.56700        -1.21060
H          -1.75560         0.93170        -1.22490
H          -0.04800         1.42980        -1.23060
H          -0.56320         0.01220        -2.13970

--Link1--
%NoSave
%chk=DMAEMA-4.chk
#P B3LYP/6-311++G(d,p) Geom=Allcheck SCF=Tight EmpiricalDispersion=GD3BJ Pop=CHELPG SP IOp(6/33=2)

Calculating ESP
