%Mem=512GB
%NProcShared=128
%Chk=MAA1-VP1-1.chk
#n B3LYP/6-311++G(d,p) Opt freq EmpiricalDispersion=GD3BJ IOp(6/33=2)

MAA1-VP1 geo opt

0 1
C          20.22000        11.74300        12.58300
C          21.03600        10.50600        12.58700
C          21.95200        10.23800        13.53400
C          20.85400         9.62300        11.44500
O          21.18300         9.84900        10.28100
O          20.19300         8.41900        11.66500
H          20.56200        12.32500        11.72700
H          20.40300        12.45200        13.39000
H          19.17000        11.48500        12.44500
H          22.17600        10.74800        14.45900
H          22.45800         9.29700        13.37100
H          19.79300         8.31400        12.51500
C          19.80200         6.39100        19.12600
C          19.23400         5.78800        18.06200
C          19.22000         6.56800        16.83200
C          19.10100         7.98900        16.84400
C          19.10400         8.62000        15.64900
N          19.14300         7.96900        14.47700
C          19.16800         6.58800        14.40500
C          19.30600         5.90900        15.57900
H          19.82100         5.83100        20.04900
H          20.39400         7.29200        19.18300
H          18.82200         4.79900        18.20000
H          19.01700         8.58400        17.74100
H          19.13300         9.69800        15.60900
H          19.13400         6.20000        13.39800
H          19.34600         4.83000        15.54400

--Link1--
%NoSave
%chk=MAA1-VP1-1.chk
#P B3LYP/6-311++G(d,p) Geom=Allcheck SCF=Tight EmpiricalDispersion=GD3BJ Pop=CHELPG SP IOp(6/33=2)

Calculating ESP
