%Mem=192GB
%NProcShared=48
%Chk=MAA1-VP1-3.chk
#n B3LYP/6-311++G(d,p) Opt freq EmpiricalDispersion=GD3BJ IOp(6/33=2)

MAA1-VP1 geo opt

0 1
C           9.38600        11.55700        11.91600
C           8.37500        12.54000        12.41300
C           8.33700        13.79200        11.92200
C           7.52000        12.11200        13.51200
O           7.60000        11.06200        14.03800
O           6.61500        12.93100        14.04700
H          10.15600        11.98100        11.27100
H           8.78200        10.80300        11.41200
H           9.95600        11.05400        12.69700
H           9.05000        14.05200        11.15300
H           7.62600        14.53400        12.25400
H           6.59700        13.58200        13.36300
C           2.13500        19.52900        11.49600
C           2.43800        18.43900        10.85100
C           3.32300        17.42100        11.41400
C           3.95300        17.58400        12.68600
C           4.66000        16.54100        13.28300
N           5.02100        15.43200        12.60300
C           4.43900        15.30300        11.41800
C           3.56700        16.19200        10.79600
H           1.46500        20.26800        11.08300
H           2.70700        19.85700        12.35100
H           1.85500        18.32800         9.94800
H           3.68700        18.43200        13.30000
H           5.09000        16.58400        14.27300
H           4.75600        14.39400        10.92900
H           3.27300        15.91200         9.79500

--Link1--
%NoSave
%chk=MAA1-VP1-3.chk
#P B3LYP/6-311++G(d,p) Geom=Allcheck SCF=Tight EmpiricalDispersion=GD3BJ Pop=CHELPG SP IOp(6/33=2)

Calculating ESP
--Link1--
%NoSave
%chk=MAA1-VP1-3.chk
#P B3LYP/6-311++G(d,p) Geom=Allcheck SCF=Tight EmpiricalDispersion=GD3BJ Pop=CHELPG SP IOp(6/33=2)

Calculating ESP
